1	1	1	1	4	5	0	0	0	0	0	0
2000	1	0	0	0	0	0	0	0	0	0	0
250	1	0	77.75	0.39	1	0	0	0	0	0	0
50	150	0	0	0	0	9999	0	0	99999	0	0
50	75	0	0	0	0	9999	0	0	99999	0	0
50	75	0	0	0	0	9999	0	0	0	0	0
14	59	0	0	0	0	9999	0	0	0	0	0
22	34	0	0	0	0	9999	0	0	0	0	0
39	26	0	0	0	0	9999	0	0	0	0	0
38	5	30	4	26	101	1005	10	0	0	0	0
42	10	40	10	30	101	1010	10	0	0	0	0
42	12	10	3	7	101	1012	10	0	0	0	0
20	80	40	10	30	813	933	10	0	0	0	0
49	58	10	8	2	101	1038	10	0	0	0	0

